c nIsolatedPIs 0
c maxPI 32
p cnf 180 445
c gate 33 8 24 0
8 -33 0
24 -33 0
-8 -24 33 0
c gate 34 -8 -24 0
-8 -34 0
-24 -34 0
8 24 34 0
c gate 35 -33 -34 0
-33 -35 0
-34 -35 0
33 34 35 0
c gate 36 -7 23 0
-7 -36 0
23 -36 0
7 -23 36 0
c gate 37 7 -23 0
7 -37 0
-23 -37 0
-7 23 37 0
c gate 38 -36 -37 0
-36 -38 0
-37 -38 0
36 37 38 0
c gate 39 2 18 0
2 -39 0
18 -39 0
-2 -18 39 0
c gate 40 1 17 0
1 -40 0
17 -40 0
-1 -17 40 0
c gate 41 -39 -40 0
-39 -41 0
-40 -41 0
39 40 41 0
c gate 42 -2 -18 0
-2 -42 0
-18 -42 0
2 18 42 0
c gate 43 -3 -19 0
-3 -43 0
-19 -43 0
3 19 43 0
c gate 44 -42 -43 0
-42 -44 0
-43 -44 0
42 43 44 0
c gate 45 -41 44 0
-41 -45 0
44 -45 0
41 -44 45 0
c gate 46 4 20 0
4 -46 0
20 -46 0
-4 -20 46 0
c gate 47 3 19 0
3 -47 0
19 -47 0
-3 -19 47 0
c gate 48 -46 -47 0
-46 -48 0
-47 -48 0
46 47 48 0
c gate 49 -45 48 0
-45 -49 0
48 -49 0
45 -48 49 0
c gate 50 -5 -21 0
-5 -50 0
-21 -50 0
5 21 50 0
c gate 51 -4 -20 0
-4 -51 0
-20 -51 0
4 20 51 0
c gate 52 -50 -51 0
-50 -52 0
-51 -52 0
50 51 52 0
c gate 53 -49 52 0
-49 -53 0
52 -53 0
49 -52 53 0
c gate 54 6 -22 0
6 -54 0
-22 -54 0
-6 22 54 0
c gate 55 -6 22 0
-6 -55 0
22 -55 0
6 -22 55 0
c gate 56 -54 -55 0
-54 -56 0
-55 -56 0
54 55 56 0
c gate 57 5 21 0
5 -57 0
21 -57 0
-5 -21 57 0
c gate 58 -56 -57 0
-56 -58 0
-57 -58 0
56 57 58 0
c gate 59 -53 58 0
-53 -59 0
58 -59 0
53 -58 59 0
c gate 60 -6 -22 0
-6 -60 0
-22 -60 0
6 22 60 0
c gate 61 -59 -60 0
-59 -61 0
-60 -61 0
59 60 61 0
c gate 62 -38 -61 0
-38 -62 0
-61 -62 0
38 61 62 0
c gate 63 35 62 0
35 -63 0
62 -63 0
-35 -62 63 0
c gate 64 11 27 0
11 -64 0
27 -64 0
-11 -27 64 0
c gate 65 -7 -23 0
-7 -65 0
-23 -65 0
7 23 65 0
c gate 66 -33 65 0
-33 -66 0
65 -66 0
33 -65 66 0
c gate 67 -9 -25 0
-9 -67 0
-25 -67 0
9 25 67 0
c gate 68 -34 -67 0
-34 -68 0
-67 -68 0
34 67 68 0
c gate 69 -66 68 0
-66 -69 0
68 -69 0
66 -68 69 0
c gate 70 9 25 0
9 -70 0
25 -70 0
-9 -25 70 0
c gate 71 10 26 0
10 -71 0
26 -71 0
-10 -26 71 0
c gate 72 -70 -71 0
-70 -72 0
-71 -72 0
70 71 72 0
c gate 73 -69 72 0
-69 -73 0
72 -73 0
69 -72 73 0
c gate 74 -11 -27 0
-11 -74 0
-27 -74 0
11 27 74 0
c gate 75 -10 -26 0
-10 -75 0
-26 -75 0
10 26 75 0
c gate 76 -74 -75 0
-74 -76 0
-75 -76 0
74 75 76 0
c gate 77 -73 76 0
-73 -77 0
76 -77 0
73 -76 77 0
c gate 78 -64 -77 0
-64 -78 0
-77 -78 0
64 77 78 0
c gate 79 -12 -28 0
-12 -79 0
-28 -79 0
12 28 79 0
c gate 80 12 28 0
12 -80 0
28 -80 0
-12 -28 80 0
c gate 81 -79 -80 0
-79 -81 0
-80 -81 0
79 80 81 0
c gate 82 -63 69 0
-63 -82 0
69 -82 0
63 -69 82 0
c gate 83 -70 -82 0
-70 -83 0
-82 -83 0
70 82 83 0
c gate 84 -75 -83 0
-75 -84 0
-83 -84 0
75 83 84 0
c gate 85 -64 -71 0
-64 -85 0
-71 -85 0
64 71 85 0
c gate 86 -84 85 0
-84 -86 0
85 -86 0
84 -85 86 0
c gate 87 -74 -86 0
-74 -87 0
-86 -87 0
74 86 87 0
c gate 88 -81 87 0
-81 -88 0
87 -88 0
81 -87 88 0
c gate 89 78 -88 0
78 -89 0
-88 -89 0
-78 88 89 0
c gate 90 81 -87 0
81 -90 0
-87 -90 0
-81 87 90 0
c gate 91 -78 -90 0
-78 -91 0
-90 -91 0
78 90 91 0
c gate 92 -89 -91 0
-89 -92 0
-91 -92 0
89 91 92 0
c gate 93 63 92 0
63 -93 0
92 -93 0
-63 -92 93 0
c gate 94 81 87 0
81 -94 0
87 -94 0
-81 -87 94 0
c gate 95 -14 -30 0
-14 -95 0
-30 -95 0
14 30 95 0
c gate 96 14 30 0
14 -96 0
30 -96 0
-14 -30 96 0
c gate 97 -95 -96 0
-95 -97 0
-96 -97 0
95 96 97 0
c gate 98 -79 97 0
-79 -98 0
97 -98 0
79 -97 98 0
c gate 99 13 -29 0
13 -99 0
-29 -99 0
-13 29 99 0
c gate 100 -13 29 0
-13 -100 0
29 -100 0
13 -29 100 0
c gate 101 -99 -100 0
-99 -101 0
-100 -101 0
99 100 101 0
c gate 102 -16 -32 0
-16 -102 0
-32 -102 0
16 32 102 0
c gate 103 16 32 0
16 -103 0
32 -103 0
-16 -32 103 0
c gate 104 -102 -103 0
-102 -104 0
-103 -104 0
102 103 104 0
c gate 105 -15 -31 0
-15 -105 0
-31 -105 0
15 31 105 0
c gate 106 15 31 0
15 -106 0
31 -106 0
-15 -31 106 0
c gate 107 -105 -106 0
-105 -107 0
-106 -107 0
105 106 107 0
c gate 108 104 107 0
104 -108 0
107 -108 0
-104 -107 108 0
c gate 109 -101 108 0
-101 -109 0
108 -109 0
101 -108 109 0
c gate 110 98 109 0
98 -110 0
109 -110 0
-98 -109 110 0
c gate 111 94 -110 0
94 -111 0
-110 -111 0
-94 110 111 0
c gate 112 -93 -111 0
-93 -112 0
-111 -112 0
93 111 112 0
c gate 113 -64 -74 0
-64 -113 0
-74 -113 0
64 74 113 0
c gate 114 10 -26 0
10 -114 0
-26 -114 0
-10 26 114 0
c gate 115 8 -24 0
8 -115 0
-24 -115 0
-8 24 115 0
c gate 116 -67 -70 0
-67 -116 0
-70 -116 0
67 70 116 0
c gate 117 -115 -116 0
-115 -117 0
-116 -117 0
115 116 117 0
c gate 118 -10 26 0
-10 -118 0
26 -118 0
10 -26 118 0
c gate 119 -9 25 0
-9 -119 0
25 -119 0
9 -25 119 0
c gate 120 -118 -119 0
-118 -120 0
-119 -120 0
118 119 120 0
c gate 121 -117 120 0
-117 -121 0
120 -121 0
117 -120 121 0
c gate 122 -114 -121 0
-114 -122 0
-121 -122 0
114 121 122 0
c gate 123 -37 -54 0
-37 -123 0
-54 -123 0
37 54 123 0
c gate 124 -2 18 0
-2 -124 0
18 -124 0
2 -18 124 0
c gate 125 -1 17 0
-1 -125 0
17 -125 0
1 -17 125 0
c gate 126 -124 -125 0
-124 -126 0
-125 -126 0
124 125 126 0
c gate 127 2 -18 0
2 -127 0
-18 -127 0
-2 18 127 0
c gate 128 3 -19 0
3 -128 0
-19 -128 0
-3 19 128 0
c gate 129 -127 -128 0
-127 -129 0
-128 -129 0
127 128 129 0
c gate 130 -126 129 0
-126 -130 0
129 -130 0
126 -129 130 0
c gate 131 -4 20 0
-4 -131 0
20 -131 0
4 -20 131 0
c gate 132 -3 19 0
-3 -132 0
19 -132 0
3 -19 132 0
c gate 133 -131 -132 0
-131 -133 0
-132 -133 0
131 132 133 0
c gate 134 -130 133 0
-130 -134 0
133 -134 0
130 -133 134 0
c gate 135 5 -21 0
5 -135 0
-21 -135 0
-5 21 135 0
c gate 136 4 -20 0
4 -136 0
-20 -136 0
-4 20 136 0
c gate 137 -135 -136 0
-135 -137 0
-136 -137 0
135 136 137 0
c gate 138 -134 137 0
-134 -138 0
137 -138 0
134 -137 138 0
c gate 139 -5 21 0
-5 -139 0
21 -139 0
5 -21 139 0
c gate 140 56 -139 0
56 -140 0
-139 -140 0
-56 139 140 0
c gate 141 -138 140 0
-138 -141 0
140 -141 0
138 -140 141 0
c gate 142 123 -141 0
123 -142 0
-141 -142 0
-123 141 142 0
c gate 143 -36 -142 0
-36 -143 0
-142 -143 0
36 142 143 0
c gate 144 -35 143 0
-35 -144 0
143 -144 0
35 -143 144 0
c gate 145 120 144 0
120 -145 0
144 -145 0
-120 -144 145 0
c gate 146 122 -145 0
122 -146 0
-145 -146 0
-122 145 146 0
c gate 147 -113 146 0
-113 -147 0
146 -147 0
113 -146 147 0
c gate 148 113 -146 0
113 -148 0
-146 -148 0
-113 146 148 0
c gate 149 -147 -148 0
-147 -149 0
-148 -149 0
147 148 149 0
c gate 150 122 -149 0
122 -150 0
-149 -150 0
-122 149 150 0
c gate 151 -38 141 0
-38 -151 0
141 -151 0
38 -141 151 0
c gate 152 -80 110 0
-80 -152 0
110 -152 0
80 -110 152 0
c gate 153 87 152 0
87 -153 0
152 -153 0
-87 -152 153 0
c gate 154 -141 -153 0
-141 -154 0
-153 -154 0
141 153 154 0
c gate 155 -112 154 0
-112 -155 0
154 -155 0
112 -154 155 0
c gate 156 -151 -155 0
-151 -156 0
-155 -156 0
151 155 156 0
c gate 157 -144 -156 0
-144 -157 0
-156 -157 0
144 156 157 0
c gate 158 35 123 0
35 -158 0
123 -158 0
-35 -123 158 0
c gate 159 143 158 0
143 -159 0
158 -159 0
-143 -158 159 0
c gate 160 -144 -159 0
-144 -160 0
-159 -160 0
144 159 160 0
c gate 161 -71 -75 0
-71 -161 0
-75 -161 0
71 75 161 0
c gate 162 -116 -161 0
-116 -162 0
-161 -162 0
116 161 162 0
c gate 163 -159 162 0
-159 -163 0
162 -163 0
159 -162 163 0
c gate 164 -160 -163 0
-160 -164 0
-163 -164 0
160 163 164 0
c gate 165 -157 -164 0
-157 -165 0
-164 -165 0
157 164 165 0
c gate 166 -150 165 0
-150 -166 0
165 -166 0
150 -165 166 0
c gate 167 -147 -166 0
-147 -167 0
-166 -167 0
147 166 167 0
c gate 168 -81 -97 0
-81 -168 0
-97 -168 0
81 97 168 0
c gate 169 -104 -107 0
-104 -169 0
-107 -169 0
104 107 169 0
c gate 170 101 169 0
101 -170 0
169 -170 0
-101 -169 170 0
c gate 171 168 170 0
168 -171 0
170 -171 0
-168 -170 171 0
c gate 172 147 171 0
147 -172 0
171 -172 0
-147 -171 172 0
c gate 173 -167 -172 0
-167 -173 0
-172 -173 0
167 172 173 0
c gate 174 -112 173 0
-112 -174 0
173 -174 0
112 -173 174 0
c gate 175 -59 -62 0
-59 -175 0
-62 -175 0
59 62 175 0
c gate 176 -92 -175 0
-92 -176 0
-175 -176 0
92 175 176 0
c gate 177 -94 -176 0
-94 -177 0
-176 -177 0
94 176 177 0
c gate 178 -111 -177 0
-111 -178 0
-177 -178 0
111 177 178 0
c gate 179 -173 178 0
-173 -179 0
178 -179 0
173 -178 179 0
c gate 180 -174 -179 0
-174 -180 0
-179 -180 0
174 179 180 0
c PO
-180 0
